db/data/266122905496542033484025441326416124.z3.out
sat
-------------------
16.681448450
